RT is False
Default write of storage_offers_DA.csv just to have a file (but constraint should be inactive)
Reading model...
...model read.
creating competitive generators file...
...competitive generators recorded.
Loading data...
.. day-ahead data read.
Compiling instance...
...instance created.
Creating Offer Mitigation (model will solve as dispatch if TRUE)...
NOTE: storage offers will not be mitigated
...storage offer mitigation file created
LP
RUNNING NORMAL LP
Solving...

Welcome to IBM(R) ILOG(R) CPLEX(R) Interactive Optimizer 12.9.0.0
  with Simplex, Mixed Integer & Barrier Optimizers
5725-A06 5725-A29 5724-Y48 5724-Y49 5724-Y54 5724-Y55 5655-Y21
Copyright IBM Corp. 1988, 2019.  All Rights Reserved.

Type 'help' for a list of available commands.
Type 'help' followed by a command name for more
information on commands.

CPLEX> Logfile 'cplex.log' closed.
Logfile 'C:\Users\Luke\Desktop\competitiveMPEC_1.16\logs\tmpkbq15lwb.cplex.log' open.
CPLEX> New value for parallel optimization mode: -1
CPLEX> New value for mixed integer optimality gap tolerance: 0.01
CPLEX> New value for feasibility tolerance: 0.01
CPLEX> New value for deterministic time limit in ticks: 100000
CPLEX> Problem 'C:\Users\Luke\Desktop\competitiveMPEC_1.16\logs\tmpbnvypu68.pyomo.lp' read.
Read time = 0.05 sec. (2.98 ticks)
CPLEX> Problem name         : C:\Users\Luke\Desktop\competitiveMPEC_1.16\logs\tmpbnvypu68.pyomo.lp
Objective sense      : Minimize
Variables            :   25839  [Nneg: 889,  Box: 21470,  Free: 3480]
Objective nonzeros   :    2496
Linear constraints   :   27297  [Less: 13861,  Greater: 4416,  Equal: 9020]
  Nonzeros           :   87324
  RHS nonzeros       :   12139

Variables            : Min LB: -5000.000        Max UB: 5000.000       
Objective nonzeros   : Min   : 15.73158         Max   : 124.0997       
Linear constraints   :
  Nonzeros           : Min   : 0.8500000        Max   : 3000.000       
  RHS nonzeros       : Min   : 1.000000         Max   : 250000.0       
CPLEX> CPXPARAM_Parallel                                -1
CPXPARAM_Simplex_Tolerances_Feasibility          0.01
CPXPARAM_DetTimeLimit                            100000
CPXPARAM_MIP_Tolerances_MIPGap                   0.01
Parallel mode: opportunistic, using up to 24 threads for concurrent optimization.
Tried aggregator 1 time.
LP Presolve eliminated 22001 rows and 17631 columns.
Aggregator did 751 substitutions.
Reduced LP has 4545 rows, 7457 columns, and 19811 nonzeros.
Presolve time = 0.05 sec. (27.47 ticks)

Iteration log . . .
Iteration:     1   Dual objective     =             0.000000
Perturbation started.
Iteration:   101   Dual objective     =             0.000000
Iteration:   396   Dual objective     =             0.388335
Iteration:   725   Dual objective     =             0.743354
Iteration:  1064   Dual objective     =             1.066277
Iteration:  1398   Dual objective     =             1.345459
Iteration:  1761   Dual objective     =             1.633235
Iteration:  2086   Dual objective     =             1.831406
Iteration:  2380   Dual objective     =             1.887669
Iteration:  2622   Dual objective     =             1.913613
Iteration:  2859   Dual objective     =         54410.799845
Iteration:  3088   Dual objective     =         94015.916362
Iteration:  3387   Dual objective     =         94963.551285
Iteration:  3648   Dual objective     =        103489.989145
Iteration:  3947   Dual objective     =        104879.882766
Removing perturbation.

Dual simplex solved model.


Dual simplex - Optimal:  Objective =  1.0512058907e+05
Solution time =    0.13 sec.  Iterations = 4153 (0)
Deterministic time = 84.77 ticks  (678.15 ticks/sec)

CPLEX> Solution written to file 'C:\Users\Luke\Desktop\competitiveMPEC_1.16\logs\tmpiucdfwrh.cplex.sol'.
CPLEX> Exporting results... 
